c 214_3_checker_6cl.cnf
c
c field = 214
c formula set type = 3_checker_6cl
c
p cnf 6 10
422 
424 
428 
-431 
-420 
-432 
423 
425 
429 
-430 
-421 
-433 
424 
428 
430 
-423 
-420 
-432 
425 
429 
431 
-422 
-421 
-433 
424 
428 
430 
-433 
-422 
-434 
425 
429 
431 
-432 
-423 
-435 
428 
430 
432 
-425 
-422 
-434 
429 
431 
433 
-424 
-423 
-435 
428 
430 
432 
-435 
-424 
-436 
429 
431 
433 
-434 
-425 
-437 
